c boolean__Z5max_1ii
p cnf 67 165
33 1 0
33 1 -65 0
-33 1 0
-69 33 0
68 -67 1 0
-69 34 0
68 -67 2 0
-69 35 0
68 -67 3 0
-69 36 0
68 -67 4 0
-69 37 0
68 -67 5 0
-69 38 0
68 -67 6 0
-69 39 0
68 -67 7 0
-69 40 0
68 -67 8 0
-69 41 0
68 -67 9 0
-69 42 0
68 -67 10 0
-69 43 0
68 -67 11 0
-69 44 0
68 -67 12 0
-69 45 0
68 -67 13 0
-69 46 0
68 -67 14 0
-69 47 0
68 -67 15 0
-69 48 0
68 -67 16 0
-69 49 0
68 -67 17 0
-69 50 0
68 -67 18 0
-69 51 0
68 -67 19 0
-69 52 0
68 -67 20 0
-69 53 0
68 -67 21 0
-69 54 0
68 -67 22 0
-69 55 0
68 -67 23 0
-69 56 0
68 -67 24 0
-69 57 0
68 -67 25 0
-69 58 0
68 -67 26 0
-69 59 0
68 -67 27 0
-69 60 0
68 -67 28 0
-69 61 0
68 -67 29 0
-69 62 0
68 -67 30 0
-69 63 0
68 -67 31 0
-69 64 0
68 -67 32 0
